1000
[150,151,152,154,155,156,157,158,159,161,162,163,164,165,166,167,169,170,171,172,173,174,175,176,177,178,179,181,182,183,184,185,187,188,189,190,191,192,193,194,196,197,198,199]
[5,3,2,2,3,2,6,2,3,1,3,3,1,8,2,2,3,2,4,2,1,2,3,4,6,1,4,5,3,1,2,3,2,1,2,4,3,1,3,1,2,2,3,2]
